50
5804

767 799
323 401
535 488
853 191
35 647
326 192
40 880
716 701
6 657
430 117
96 577
19 304
138 633
398 71
782 895
494 273
781 646
57 93
478 654
415 895
663 10
513 486
472 419
123 461
459 587
342 739
258 352
274 526
542 756
479 396
376 538
621 752
663 182
527 394
244 283
545 198
843 776
358 320
667 30
612 91
643 593
387 520
957 653
30 983
875 567
85 410
132 861
118 813
670 711
115 99
